c This Formular is generated by mcnf
c
c    horn? no 
c    forced? no 
c    mixed sat? no 
c    clause length = 3 
c
p cnf 20  91 
 3 -15 6 0
9 14 2 0
9 4 18 0
-12 11 -13 0
1 -5 -17 0
19 -16 7 0
-14 6 -15 0
-20 -16 -3 0
-6 -8 2 0
-17 20 8 0
-6 4 -17 0
13 -1 20 0
7 -16 -3 0
1 -18 7 0
-5 11 -6 0
14 9 15 0
5 14 -4 0
-12 -8 15 0
-13 -18 -4 0
-7 -3 -9 0
-4 -8 1 0
%
0

13 64 32 33 23 55 94 97 91 56 52 48 65 47 59 70 10 71 29 41
